data;


param d:= 100;
param r:=5;
param p:=0.300000;
param M:=1000;
param U:=
         1         1       -7.382633e-01
         2         1        5.812206e-01
         3         1       -3.429596e-01
         4         1        3.887911e-01
         5         1       -7.948374e-01
         6         1       -1.337011e+00
         7         1        4.936101e-01
         8         1        6.785642e-01
         9         1        1.074390e+00
        10         1       -1.787562e+00
        11         1       -1.591319e+00
        12         1       -1.249392e-01
        13         1        1.139707e+00
        14         1       -5.981852e-01
        15         1       -2.755257e-01
        16         1        1.036271e+00
        17         1       -1.123388e-01
        18         1       -1.786046e-01
        19         1        2.344016e-02
        20         1        3.420831e-01
        21         1       -1.283667e+00
        22         1       -1.114127e-01
        23         1        1.630440e+00
        24         1       -1.763961e+00
        25         1       -1.098104e+00
        26         1       -8.662683e-01
        27         1        2.818512e-01
        28         1       -4.885792e-01
        29         1       -1.131556e+00
        30         1        1.307541e+00
        31         1        7.894269e-01
        32         1        3.556913e-01
        33         1       -7.796613e-02
        34         1        7.799349e-01
        35         1        8.234629e-03
        36         1        1.573198e-01
        37         1       -1.741043e-02
        38         1       -9.836717e-01
        39         1       -2.633845e-01
        40         1        2.162943e+00
        41         1        1.835892e+00
        42         1       -5.672582e-01
        43         1       -2.197023e-01
        44         1        6.429908e-01
        45         1        4.430916e-01
        46         1       -6.308538e-01
        47         1       -1.212111e-01
        48         1       -2.135354e-01
        49         1       -9.384920e-01
        50         1       -5.373670e-02
        51         1        4.199347e-01
        52         1        4.093766e-01
        53         1        2.848926e-01
        54         1        6.280967e-01
        55         1       -5.507299e-01
        56         1        1.100710e-03
        57         1       -1.622612e+00
        58         1       -3.966304e-01
        59         1       -2.038468e-02
        60         1        6.613001e-01
        61         1       -6.962214e-02
        62         1       -3.489164e-01
        63         1       -1.126537e+00
        64         1       -1.608097e+00
        65         1        6.080936e-01
        66         1       -7.951762e-01
        67         1        8.390715e-01
        68         1        2.642017e+00
        69         1       -3.252640e-01
        70         1       -4.699070e-01
        71         1        3.185530e-01
        72         1        1.076201e+00
        73         1        1.147321e+00
        74         1        2.180100e+00
        75         1        1.092924e+00
        76         1       -2.168957e+00
        77         1       -5.157466e-01
        78         1        1.737035e-01
        79         1        7.178159e-01
        80         1        1.355447e+00
        81         1        5.469429e-01
        82         1       -4.115523e-01
        83         1       -7.076193e-01
        84         1       -4.783992e-01
        85         1        2.830670e-01
        86         1       -3.511521e-01
        87         1       -6.081417e-01
        88         1        4.752015e-01
        89         1        5.351342e-01
        90         1        2.247197e+00
        91         1        9.180064e-01
        92         1       -5.937392e-01
        93         1        1.644775e+00
        94         1       -1.173846e+00
        95         1       -2.225238e-01
        96         1       -1.072453e+00
        97         1       -2.957982e-01
        98         1       -1.298420e+00
        99         1       -7.220590e-01
       100         1       -9.531182e-01
         1         2        2.470210e-02
         2         2       -1.479918e+00
         3         2       -2.881802e+00
         4         2       -1.263378e+00
         5         2       -5.659256e-01
         6         2        3.619112e-01
         7         2        1.050997e-01
         8         2       -1.982130e-01
         9         2        1.333376e+00
        10         2       -1.522251e+00
        11         2       -2.755951e+00
        12         2        9.065379e-01
        13         2        1.126195e-02
        14         2        7.396339e-01
        15         2       -1.578271e+00
        16         2        4.495741e-01
        17         2        1.560403e-01
        18         2       -5.956253e-01
        19         2       -1.379194e+00
        20         2       -5.994100e-01
        21         2       -4.485069e-01
        22         2        1.375560e-01
        23         2        1.668620e-01
        24         2       -4.798153e-02
        25         2        2.502382e-01
        26         2       -4.502403e-02
        27         2       -8.039074e-01
        28         2        8.140603e-02
        29         2       -1.029202e-01
        30         2        4.470379e-01
        31         2        1.274550e+00
        32         2       -8.372871e-01
        33         2        6.051977e-01
        34         2       -1.136103e+00
        35         2        4.414448e-02
        36         2        1.411685e+00
        37         2        7.174447e-01
        38         2        1.807985e-01
        39         2       -2.135693e+00
        40         2        1.666124e+00
        41         2        7.949067e-01
        42         2       -1.679445e+00
        43         2       -1.198134e+00
        44         2       -1.743405e+00
        45         2       -6.917917e-01
        46         2       -1.182126e-01
        47         2        1.233225e+00
        48         2        2.663410e+00
        49         2       -8.213556e-01
        50         2        4.015016e-01
        51         2        5.066883e-01
        52         2        9.628658e-01
        53         2        2.050487e+00
        54         2       -1.895532e+00
        55         2       -8.552994e-01
        56         2        1.316002e-01
        57         2       -1.178531e+00
        58         2       -4.509299e-01
        59         2        1.374844e+00
        60         2        5.124467e-01
        61         2        5.210978e-01
        62         2       -1.535033e+00
        63         2       -2.242830e-01
        64         2        2.898927e-01
        65         2        9.417402e-01
        66         2       -4.976513e-02
        67         2        6.227158e-01
        68         2       -2.368513e-01
        69         2        4.677792e-01
        70         2        1.405321e+00
        71         2       -5.186105e-01
        72         2        2.295857e-01
        73         2       -9.498045e-01
        74         2        8.007606e-02
        75         2        5.536754e-02
        76         2        4.961464e-01
        77         2        1.211402e+00
        78         2       -3.045273e-02
        79         2        6.699566e-01
        80         2       -7.580669e-01
        81         2       -2.986530e-01
        82         2       -9.184082e-01
        83         2        1.133785e+00
        84         2       -9.729769e-01
        85         2        6.147104e-01
        86         2        7.777604e-01
        87         2        9.114354e-01
        88         2        4.223987e-01
        89         2       -9.004448e-01
        90         2        5.911094e-01
        91         2        5.642996e-01
        92         2        3.992067e-01
        93         2       -3.498763e-01
        94         2        4.469146e-01
        95         2        9.702602e-01
        96         2       -1.181418e+00
        97         2       -1.495921e-01
        98         2       -1.436815e-01
        99         2        5.140236e-01
       100         2       -1.478998e-01
         1         3       -3.793093e-01
         2         3        5.474831e-01
         3         3        5.639741e-01
         4         3       -4.242966e-01
         5         3        1.018173e+00
         6         3        1.609017e+00
         7         3        5.952484e-01
         8         3        1.841691e-02
         9         3       -9.481155e-01
        10         3       -1.675120e-01
        11         3        1.412736e+00
        12         3       -9.956765e-01
        13         3       -5.782151e-01
        14         3        1.139117e+00
        15         3       -1.456146e+00
        16         3       -1.125015e+00
        17         3        1.369122e-01
        18         3        2.158647e+00
        19         3        6.053006e-01
        20         3        8.426730e-01
        21         3        1.975816e-01
        22         3       -1.298138e-01
        23         3        1.561575e+00
        24         3        1.215517e+00
        25         3       -6.088962e-01
        26         3        2.576014e+00
        27         3       -1.061625e-01
        28         3       -4.287455e-01
        29         3        7.531385e-01
        30         3        2.240214e+00
        31         3       -2.598337e-01
        32         3       -1.878472e-01
        33         3        8.724300e-02
        34         3        4.086540e-01
        35         3        1.530883e-01
        36         3        1.768445e+00
        37         3        1.741024e-01
        38         3        4.735575e-01
        39         3        8.427195e-02
        40         3       -2.402227e+00
        41         3       -6.500273e-01
        42         3       -2.443442e-02
        43         3       -4.465589e-01
        44         3       -9.971670e-01
        45         3        1.397810e-02
        46         3        6.597862e-01
        47         3        4.728285e-01
        48         3        7.185348e-01
        49         3       -2.122789e-01
        50         3       -4.288446e-01
        51         3        2.275237e-01
        52         3       -1.895894e+00
        53         3       -8.331360e-01
        54         3       -3.202950e-01
        55         3       -7.197926e-01
        56         3       -9.706023e-01
        57         3        8.821064e-01
        58         3        1.812376e-01
        59         3        1.176300e+00
        60         3       -2.721357e-01
        61         3       -3.943986e-01
        62         3        5.615125e-02
        63         3        3.876323e-01
        64         3       -2.282525e+00
        65         3       -2.448958e+00
        66         3       -8.988386e-01
        67         3        6.423307e-02
        68         3        1.169709e+00
        69         3       -1.161223e+00
        70         3       -1.124950e-01
        71         3        2.398484e+00
        72         3       -6.302810e-01
        73         3        1.816361e+00
        74         3        4.231521e-01
        75         3        1.478459e-01
        76         3       -1.029662e+00
        77         3       -1.552537e+00
        78         3        1.262897e+00
        79         3        2.047243e+00
        80         3       -6.995919e-02
        81         3       -3.018127e+00
        82         3        6.287856e-01
        83         3        8.916788e-01
        84         3       -1.084053e+00
        85         3       -9.110953e-01
        86         3       -3.251903e-01
        87         3        1.007228e+00
        88         3        9.520720e-01
        89         3       -2.600550e+00
        90         3       -5.852848e-01
        91         3        1.423046e+00
        92         3       -1.656913e+00
        93         3       -6.234369e-01
        94         3        1.850543e-01
        95         3        1.887508e+00
        96         3        6.372774e-01
        97         3        1.343848e-01
        98         3       -3.844770e-01
        99         3        1.359115e+00
       100         3       -1.080656e+00
         1         4        8.846565e-01
         2         4       -2.923775e-01
         3         4        4.896724e-01
         4         4       -1.336983e+00
         5         4       -1.112099e-01
         6         4        4.062503e-01
         7         4       -4.271126e-01
         8         4       -7.484604e-01
         9         4        1.294071e+00
        10         4       -1.366083e-01
        11         4       -2.465918e-01
        12         4        6.417016e-01
        13         4       -2.227615e+00
        14         4       -3.249984e-02
        15         4        1.926862e+00
        16         4        8.192068e-01
        17         4        1.546663e-01
        18         4        4.315488e-01
        19         4        3.761771e-01
        20         4       -4.313740e-01
        21         4        9.661453e-01
        22         4        1.524757e+00
        23         4       -1.406169e+00
        24         4       -1.267186e+00
        25         4       -4.743984e-03
        26         4        4.414823e-01
        27         4       -1.707039e+00
        28         4       -5.421878e-01
        29         4       -1.451925e+00
        30         4       -4.265947e-01
        31         4        7.926604e-01
        32         4        5.702673e-01
        33         4        1.028925e+00
        34         4       -1.641521e+00
        35         4       -4.518607e-01
        36         4        2.405396e-01
        37         4        1.840062e+00
        38         4       -1.080331e+00
        39         4        8.290861e-01
        40         4       -1.055026e+00
        41         4        1.497367e-01
        42         4        1.933537e+00
        43         4       -7.686115e-01
        44         4       -8.346754e-01
        45         4       -2.924304e-01
        46         4       -2.824293e+00
        47         4       -1.144300e+00
        48         4       -1.392099e+00
        49         4       -5.119750e-01
        50         4        1.986352e-01
        51         4        1.661063e+00
        52         4       -9.354509e-01
        53         4        2.317790e-01
        54         4        1.545843e+00
        55         4        1.031743e+00
        56         4        1.509554e-01
        57         4        1.170484e-01
        58         4        1.497547e-01
        59         4        1.017275e-01
        60         4       -1.222389e+00
        61         4       -7.271904e-01
        62         4       -5.461739e-01
        63         4       -1.175893e+00
        64         4        1.532737e+00
        65         4        7.261841e-01
        66         4       -8.665633e-01
        67         4       -2.405919e+00
        68         4       -1.218870e+00
        69         4        1.830351e+00
        70         4        5.478168e-01
        71         4       -6.054301e-01
        72         4       -6.830553e-01
        73         4        4.960932e-01
        74         4       -8.000224e-01
        75         4       -7.975604e-02
        76         4        1.101946e+00
        77         4        7.451888e-01
        78         4        3.131710e-01
        79         4       -2.142951e-01
        80         4        9.050317e-01
        81         4        7.262592e-01
        82         4        4.884440e-01
        83         4       -1.084762e+00
        84         4        8.397521e-02
        85         4        2.568080e-01
        86         4       -1.053598e+00
        87         4        1.666476e+00
        88         4       -5.542103e-01
        89         4        6.218722e-01
        90         4       -3.426386e-01
        91         4        1.340461e+00
        92         4       -6.881439e-02
        93         4       -8.437943e-01
        94         4       -4.457256e-02
        95         4       -1.636194e+00
        96         4        2.947696e-02
        97         4       -8.035287e-01
        98         4       -1.367990e+00
        99         4        6.442671e-01
       100         4        1.236863e-01
         1         5        6.876106e-01
         2         5        1.471736e+00
         3         5        5.231777e-02
         4         5       -2.711217e+00
         5         5        1.789335e+00
         6         5       -2.008728e+00
         7         5       -4.805647e-01
         8         5        7.255203e-02
         9         5       -1.374784e+00
        10         5        1.083405e-01
        11         5       -1.651290e+00
        12         5       -1.013749e+00
        13         5       -2.728766e-01
        14         5        1.437184e-01
        15         5       -5.395011e-01
        16         5       -3.217505e-02
        17         5        1.738481e+00
        18         5       -1.860021e-01
        19         5        6.741324e-01
        20         5       -5.935183e-01
        21         5       -1.921741e+00
        22         5       -5.854502e-01
        23         5        4.813731e-01
        24         5       -3.422931e-01
        25         5       -9.368353e-01
        26         5       -5.331760e-01
        27         5        1.410879e+00
        28         5       -2.582417e-01
        29         5       -2.714586e-01
        30         5        1.092707e+00
        31         5       -1.917549e-01
        32         5       -1.414432e+00
        33         5       -8.971511e-02
        34         5       -3.662287e-01
        35         5        1.767276e+00
        36         5        6.442820e-01
        37         5        1.311974e+00
        38         5        6.397393e-01
        39         5       -9.564229e-01
        40         5        3.063147e-01
        41         5       -2.058549e+00
        42         5       -1.778676e+00
        43         5       -7.943700e-01
        44         5        3.332661e-02
        45         5       -1.988236e-01
        46         5       -1.201787e+00
        47         5       -6.029863e-01
        48         5        1.067863e+00
        49         5       -7.848934e-01
        50         5       -1.926060e-01
        51         5       -1.543205e+00
        52         5       -8.284965e-02
        53         5       -8.148189e-01
        54         5        1.825812e+00
        55         5        8.538775e-01
        56         5       -1.092194e+00
        57         5        2.071357e-01
        58         5        1.772213e+00
        59         5       -1.111653e+00
        60         5       -5.487364e-02
        61         5        7.926011e-01
        62         5       -1.737285e-01
        63         5        8.553839e-02
        64         5       -6.289710e-01
        65         5        7.670744e-01
        66         5        4.317504e-01
        67         5       -4.203756e-01
        68         5        2.532507e-01
        69         5        1.197493e-01
        70         5        1.516254e+00
        71         5       -1.024598e+00
        72         5       -1.213486e+00
        73         5       -1.655665e+00
        74         5        4.025847e-01
        75         5       -6.671650e-01
        76         5       -7.660776e-01
        77         5        7.466987e-01
        78         5        2.028166e+00
        79         5        1.134499e+00
        80         5        8.951382e-01
        81         5       -1.352401e+00
        82         5        9.453283e-01
        83         5       -1.295572e+00
        84         5       -7.040276e-02
        85         5       -2.244913e-01
        86         5        8.620521e-01
        87         5        1.607897e-01
        88         5        8.246648e-01
        89         5       -2.297452e-01
        90         5        1.950025e-01
        91         5       -1.311774e+00
        92         5        8.285628e-01
        93         5       -3.891354e-01
        94         5       -7.326068e-01
        95         5       -1.340523e+00
        96         5        3.325651e-01
        97         5       -7.698182e-01
        98         5        1.981638e-01
        99         5       -2.145761e+00
       100         5       -2.222127e-01
;

param theta:=
    1       -1.482896e+00
    2        9.582154e-01
    3       -9.923130e-01
    4        7.905761e-02
    5       -1.640401e+00
;
param X_true:=
    1        4.368130e-01
    2       -5.260595e+00
    3       -2.859562e+00
    4        2.975693e+00
    5       -3.317983e+00
    6        4.060024e+00
    7       -4.673848e-01
    8       -1.392632e+00
    9        2.982784e+00
   10        1.169826e+00
   11        1.006372e+00
   12        3.755639e+00
   13       -8.339883e-01
   14        2.270891e-01
   15        1.378536e+00
   16        1.280182e-01
   17       -2.659331e+00
   18       -2.108704e+00
   19       -3.033080e+00
   20       -9.783284e-01
   21        4.506523e+00
   22        1.506754e+00
   23       -4.708267e+00
   24        1.824938e+00
   25        4.008782e+00
   26       -4.052451e-01
   27       -3.532287e+00
   28        1.608722e+00
   29        1.162526e+00
   30       -5.559785e+00
   31        6.857130e-01
   32        1.221968e+00
   33        8.374660e-01
   34       -2.179719e+00
   35       -3.056587e+00
   36       -1.673306e+00
   37       -1.466172e+00
   38        2.717205e-02
   39       -1.050443e-01
   40        1.869622e-01
   41        2.072970e+00
   42        2.326764e+00
   43        8.631719e-01
   44       -1.755201e+00
   45       -1.030783e+00
   46        1.915634e+00
   47        1.790918e+00
   48        2.939804e-01
   49        2.062361e+00
   50        1.221614e+00
   51        2.299817e+00
   52        2.258843e+00
   53        3.724027e+00
   54       -5.302749e+00
   55       -6.077605e-01
   56        2.891181e+00
   57        7.102004e-02
   58       -2.919071e+00
   59        2.011965e+00
   60       -2.261855e-01
   61       -3.637401e-01
   62       -7.674004e-01
   63        8.376923e-01
   64        6.080338e+00
   65        1.229885e+00
   66        1.246655e+00
   67       -2.119209e-01
   68       -5.817302e+00
   69        2.031129e+00
   70       -2.889021e-01
   71       -1.716480e+00
   72        1.186138e+00
   73       -1.658699e+00
   74       -4.299678e+00
   75       -6.262354e-01
   76        6.057291e+00
   77        2.300213e+00
   78       -4.842200e+00
   79       -4.331963e+00
   80       -4.063792e+00
   81        4.173590e+00
   82       -2.405798e+00
   83        3.290409e+00
   84        9.749424e-01
   85        1.461916e+00
   86        9.126880e-02
   87        6.436644e-01
   88       -2.641274e+00
   89        1.350230e+00
   90       -2.532134e+00
   91        2.511403e-02
   92        1.542541e+00
   93       -1.584012e+00
   94        3.183545e+00
   95        1.456340e+00
   96       -7.173052e-01
   97        1.361230e+00
   98        1.736047e+00
   99        3.785457e+00
  100        2.718300e+00
;
param X:=
    1        4.368130e-01
    2       -5.260595e+00
    3       -2.859562e+00
    4        2.975693e+00
    5       -1.878101e+00
    6        4.060024e+00
    7       -1.979152e+00
    8       -1.392632e+00
    9        2.982784e+00
   10        1.169826e+00
   11        1.006372e+00
   12        3.755639e+00
   13       -8.339883e-01
   14        1.051535e+00
   15        1.378536e+00
   16       -1.375916e-03
   17       -2.659331e+00
   18        9.759742e-01
   19       -3.033080e+00
   20       -9.783284e-01
   21        4.506523e+00
   22        1.506754e+00
   23       -4.708267e+00
   24        1.824938e+00
   25        4.008782e+00
   26       -4.052451e-01
   27       -3.532287e+00
   28        1.608722e+00
   29        1.162526e+00
   30       -5.559785e+00
   31       -5.335213e-01
   32        9.622896e-01
   33        8.374660e-01
   34       -2.179719e+00
   35        2.186859e-01
   36       -1.673306e+00
   37        9.594587e-01
   38        2.717205e-02
   39       -1.050443e-01
   40        1.869622e-01
   41        2.072970e+00
   42        2.326764e+00
   43       -1.481091e-01
   44        2.747723e-01
   45       -1.428461e-01
   46        1.915634e+00
   47       -1.108136e+00
   48        2.939804e-01
   49       -1.298799e+00
   50       -1.235397e-01
   51        2.299817e+00
   52        2.258843e+00
   53       -2.109607e+00
   54       -5.302749e+00
   55       -6.456939e-01
   56       -6.538608e-01
   57        7.102004e-02
   58       -4.143058e-01
   59        2.011965e+00
   60       -2.261855e-01
   61       -3.637401e-01
   62       -7.674004e-01
   63        8.376923e-01
   64        3.394788e-01
   65        1.229885e+00
   66        1.246655e+00
   67        1.173181e+00
   68       -5.817302e+00
   69        1.212229e+00
   70       -2.889021e-01
   71       -1.716480e+00
   72        1.186138e+00
   73       -1.658699e+00
   74       -2.180409e-01
   75       -6.262354e-01
   76        6.057291e+00
   77        2.300213e+00
   78       -4.842200e+00
   79       -4.331963e+00
   80       -4.063792e+00
   81        4.173590e+00
   82        1.350021e-01
   83        2.907735e-01
   84       -8.033344e-01
   85        1.461916e+00
   86        9.126880e-02
   87       -3.527206e-01
   88       -2.641274e+00
   89        1.350230e+00
   90       -2.532134e+00
   91        1.444572e+00
   92        1.542541e+00
   93        1.169861e-01
   94        3.183545e+00
   95        1.456340e+00
   96       -7.173052e-01
   97       -4.445881e-01
   98        2.409835e+00
   99        3.785457e+00
  100        2.718300e+00
;
param outliervec:=
    1    0
    2    0
    3    0
    4    0
    5    1
    6    0
    7    1
    8    0
    9    0
   10    0
   11    0
   12    0
   13    0
   14    1
   15    0
   16    1
   17    0
   18    1
   19    0
   20    0
   21    0
   22    0
   23    0
   24    0
   25    0
   26    0
   27    0
   28    0
   29    0
   30    0
   31    1
   32    1
   33    0
   34    0
   35    1
   36    0
   37    1
   38    0
   39    0
   40    0
   41    0
   42    0
   43    1
   44    1
   45    1
   46    0
   47    1
   48    0
   49    1
   50    1
   51    0
   52    0
   53    1
   54    0
   55    1
   56    1
   57    0
   58    1
   59    0
   60    0
   61    0
   62    0
   63    0
   64    1
   65    0
   66    0
   67    1
   68    0
   69    1
   70    0
   71    0
   72    0
   73    0
   74    1
   75    0
   76    0
   77    0
   78    0
   79    0
   80    0
   81    0
   82    1
   83    1
   84    1
   85    0
   86    0
   87    1
   88    0
   89    0
   90    0
   91    1
   92    0
   93    1
   94    0
   95    0
   96    0
   97    1
   98    1
   99    0
  100    0
;